Version identifier: 22.1.0.0 | 2022-03-09 | 1a383f8ce
CPXPARAM_Read_DataCheck                          1
CPXPARAM_Threads                                 1
CPXPARAM_MIP_Cuts_Cliques                        -1
CPXPARAM_MIP_Cuts_Covers                         -1
CPXPARAM_MIP_Cuts_FlowCovers                     -1
CPXPARAM_MIP_Cuts_Implied                        -1
CPXPARAM_MIP_Cuts_PathCut                        -1
CPXPARAM_MIP_Cuts_MIRCut                         -1
CPXPARAM_MIP_Cuts_ZeroHalfCut                    -1
CPXPARAM_MIP_Cuts_LiftProj                       -1
CPXPARAM_MIP_Strategy_HeuristicFreq              -1
Tried aggregator 1 time.
MIP Presolve modified 2 coefficients.
Reduced MIP has 5 rows, 39 columns, and 171 nonzeros.
Reduced MIP has 39 binaries, 0 generals, 0 SOSs, and 0 indicators.
Presolve time = 0.00 sec. (0.09 ticks)
Probing time = 0.00 sec. (0.01 ticks)
Tried aggregator 1 time.
Detecting symmetries...
Reduced MIP has 5 rows, 39 columns, and 171 nonzeros.
Reduced MIP has 39 binaries, 0 generals, 0 SOSs, and 0 indicators.
Presolve time = 0.02 sec. (0.10 ticks)
Probing time = 0.00 sec. (0.01 ticks)
MIP emphasis: balance optimality and feasibility.
MIP search method: dynamic search.
Parallel mode: none, using 1 thread.
Root relaxation solution time = 0.00 sec. (0.05 ticks)

        Nodes                                         Cuts/
   Node  Left     Objective  IInf  Best Integer    Best Bound    ItCnt     Gap

      0     0    10672.3459     4                  10672.3459       10         
      0     0    10658.6606     5                    Fract: 1       12         
Detecting symmetries...
      0     2    10658.6606     5                  10658.1501       12         
Elapsed time = 0.02 sec. (0.46 ticks, tree = 0.01 MB, solutions = 0)
*    18     7      integral     0    10618.0000    10647.2685       68    0.28%

Gomory fractional cuts applied:  1

Root node processing (before b&c):
  Real time             =    0.02 sec. (0.46 ticks)
Sequential b&c:
  Real time             =    0.00 sec. (0.32 ticks)
                          ------------
Total (root+branch&cut) =    0.02 sec. (0.78 ticks)
